c --- [ banner ] -------------------------------------------------------------
c 
c CaDiCaL Radically Simplified CDCL SAT Solver
c Copyright (c) 2016-2021 A. Biere, M. Fleury, N. Froleyks
c 
c Version 1.5.2 9c38a080b32c28d805e8e6ca21849856b0cda605
c g++ (Ubuntu 7.5.0-3ubuntu1~18.04) 7.5.0 -Wall -Wextra -O3 -DNDEBUG
c Wed Feb 16 23:15:36 EST 2022 Linux fac-vanhoeve01 5.4.0-99-generic x86_64
c 
c --- [ limit ] --------------------------------------------------------------
c 
c setting time limit to 600 seconds real time (due to '-t 600')
c setting conflict limit to 1000000000 conflicts (due to '1000000000')
c 
c --- [ parsing input ] ------------------------------------------------------
c 
c reading DIMACS file from 'ddfwcnfs/wap06a.col_40.cnf'
c opening file to read 'ddfwcnfs/wap06a.col_40.cnf'
c found 'p cnf 37880 1554267' header
c parsed 1554267 clauses in 0.93 seconds process time
c closing file 'ddfwcnfs/wap06a.col_40.cnf'
c after reading 24566760 bytes 23.4 MB
c 
c --- [ options ] ------------------------------------------------------------
c 
c all options are set to their default value
c 
c --- [ solving ] ------------------------------------------------------------
c 
c time measured in process time since initialization
c 
c  seconds   reductions  redundant   irredundant
c          MB    restarts       trail        variables
c           level   conflicts       glue          remaining
c 
c *  0.93 139  0 0   0    0    0  0% 0 1552667 36280 96%
c {  0.94 140  0 0   0    0    0  0% 0 1552667 36280 96%
c -  1.24 140 37 1   0  302  208  9% 21 1552667 36280 96%
c }  1.31 140 35 1  21 1002  677  8% 22 1552667 36280 96%
c [  1.31 140  0 1  21 1002  677  0% 0 1552667 36280 96%
c O  1.31 140 37 1  21 1003  678  9% 37 1552667 36280 96%
c -  2.11 187 40 2  21 1616  983  9% 38 1552667 36280 96%
c ]  2.22 187 42 2  22 3002 1896 10% 39 1552667 36280 96%
c {  2.22 187 35 2  22 3002 1896  8% 22 1552667 36280 96%
c F  2.22 187 35 2  22 3004 1898  8% 22 1552667 36280 96%
c -  2.88 188 32 3  25 3588 1534 10% 22 1552667 36280 96%
c #  4.87 186 27 3  36 6005 2759 12% 22 1552667 36280 96%
c -  5.65 186 27 4  37 6218 1786 12% 22 1552667 36280 96%
c }  5.73 186 27 4  37 7005 2239 13% 22 1552667 36280 96%
c [  5.73 186 42 4  37 7005 2239 10% 39 1552667 36280 96%
c -  6.78 186 37 5  39 9505 2673 12% 32 1552667 36280 96%
c I  6.84 186 36 5  39 10007 3030 12% 32 1552667 36280 96%
c s  7.65 190 593 5  40 10839 3480 18% 34 1552667 36280 96%
c e 11.82 191 593 5  40 10839 1541 18% 34 1199313 31498 83%
c s 12.57 202 593 5  40 10839 1519 18% 34 1199313 31498 83%
c 
c  seconds    reductions   redundant    irredundant
c          MB     restarts        trail         variables
c            level    conflicts       glue           remaining
c 
c ^ 12.92 202 593 5  40 10839 1519 18% 34 1199313 31498 83%
c - 14.97 185 497 6  42 13450 2876 28% 44 1199313 31498 83%
c ] 15.22 185 442 6  42 15006 4062 26% 48 1199313 31498 83%
c { 15.22 185 27 6  42 15006 4062 15% 22 1199313 31498 83%
c B 17.06 185 29 6  42 15010 4066 15% 22 1199313 31498 83%
c - 17.87 184 41 7 742 17815 2889 11% 26 1199313 31498 83%
c W 18.71 184 50 7 746 21013 4756 11% 25 1199313 31498 83%
c - 19.58 184 52 8 1204 22804 3223 10% 26 1199313 31498 83%
c F 20.01 184 44 8 1304 28014 6398 10% 25 1199313 31498 83%
c - 20.67 184 44 9 1304 28417 4386 10% 25 1199313 31498 83%
c } 22.83 184 42 9 1305 31006 6388  9% 25 1199313 31498 83%
c [ 22.83 184 442 9 1305 31006 6388 26% 48 1199313 31498 83%
c s 23.03 184 414 9 1305 31845 6418 26% 47 1199313 31498 83%
c s 26.05 184 414 9 1305 31845 6241 26% 47 1199313 31498 83%
c ^ 26.37 184 414 9 1305 31845 6241 26% 47 1199313 31498 83%
c - 27.40 185 336 10 1307 34653 5625 22% 48 1199313 31498 83%
c B 27.59 185 309 10 1308 36016 6330 21% 48 1199313 31498 83%
c - 29.42 186 875 11 1311 41514 7017 28% 58 1199313 31498 83%
c W 30.87 186 768 11 1312 45017 9602 25% 60 1199313 31498 83%
c - 32.22 186 679 12 1313 48998 7613 23% 61 1199313 31498 83%
c 
c  seconds    reductions      redundant    irredundant
c          MB      restarts          trail         variables
c            level      conflicts        glue           remaining
c 
c O 35.43 186 583 12 1314 55020 12259 21% 63 1199313 31498 83%
c - 36.38 186 547 13 1316 57106 8377 20% 61 1199313 31498 83%
c ] 37.21 186 463 13 1320 63006 12434 18% 58 1199313 31498 83%
c { 37.21 186 42 13 1320 63006 12434  9% 25 1199313 31498 83%
c s 37.43 186 42 13 1390 63351 11933  9% 25 1199313 31498 83%
c s 40.62 186 42 13 1390 63351 10870  9% 25 1199313 31498 83%
c ^ 40.95 186 42 13 1390 63351 10870  9% 25 1199313 31498 83%
c - 41.87 185 42 14 2023 65840 6730  9% 26 1199313 31498 83%
c B 41.90 185 42 14 2069 66022 6785  9% 26 1199313 31498 83%
c - 45.50 185 50 15 2405 75195 8471  9% 26 1199313 31498 83%
c W 46.78 185 52 15 2405 78023 10695  9% 26 1199313 31498 83%
c - 48.12 185 50 16 2441 85173 9742  8% 25 1199313 31498 83%
c # 48.65 185 47 16 2441 91025 13744  8% 25 1199313 31498 83%
c - 49.70 185 45 17 2443 95775 9853  8% 24 1199313 31498 83%
c B 52.58 185 41 17 2453 105027 16271  8% 24 1199313 31498 83%
c s 52.74 185 41 17 2461 105359 15425  8% 24 1199313 31498 83%
c s 55.81 185 41 17 2461 105359 15256  8% 24 1199313 31498 83%
c ^ 56.14 185 41 17 2461 105359 15256  8% 24 1199313 31498 83%
c - 56.91 185 40 18 2461 107003 10778  8% 23 1199313 31498 83%
c - 58.40 185 36 19 2461 118852 12198  7% 21 1199313 31498 83%
c 
c  seconds   reductions       redundant    irredundant
c          MB     restarts           trail         variables
c           level      conflicts         glue           remaining
c 
c W 59.82 185 35 19 2461 120028 13142  7% 21 1199313 31498 83%
c } 60.47 185 34 19 2461 127006 18689  7% 20 1199313 31498 83%
c [ 60.47 185 463 19 2461 127006 18689 18% 58 1199313 31498 83%
c - 61.92 186 1437 20 2462 131326 13512 23% 59 1199313 31498 83%
c B 62.70 186 1291 20 2466 136032 16936 22% 59 1199313 31498 83%
c - 66.87 187 1087 21 2469 144428 13278 20% 59 1199313 31498 83%
c W 69.73 187 930 21 2470 153034 19030 19% 59 1199313 31498 83%
c s 70.67 187 858 21 2470 157868 22570 19% 58 1199313 31498 83%
c w 72.01 187 858 21 2470 157868 22564 19% 58 1199313 31498 83%
c s 73.89 187 858 21 2470 157868 22511 19% 58 1199313 31498 83%
c ^ 74.23 187 858 21 2470 157868 22511 19% 58 1199313 31498 83%
c - 75.00 187 853 22 2470 158148 14173 19% 58 1199313 31498 83%
c I 77.31 187 695 22 2473 171039 23528 18% 57 1199313 31498 83%
c - 78.71 189 937 23 2474 172500 14983 19% 61 1199313 31498 83%
c - 85.65 191 881 24 2483 187470 16266 25% 67 1199313 31498 83%
c B 86.30 191 876 24 2484 190041 18370 25% 69 1199313 31498 83%
c - 90.29 191 781 25 2488 203062 17119 26% 73 1199313 31498 83%
c W 94.01 191 807 25 2492 210044 23083 28% 74 1199313 31498 83%
c - 96.04 189 729 26 2497 219277 17569 28% 74 1199313 31498 83%
c s 96.47 189 716 26 2498 220878 18863 28% 74 1199313 31498 83%
c 
c  seconds    reductions       redundant    irredundant
c          MB      restarts           trail         variables
c            level      conflicts         glue           remaining
c 
c w 97.79 189 716 26 2498 220878 18858 28% 74 1199313 31498 83%
c e 99.65 189 716 26 2498 220878 18858 28% 74 1199324 31497 83%
c s 99.75 189 716 26 2498 220878 18849 28% 74 1199324 31497 83%
c O 104.35 189 638 26 2500 231046 26142 27% 74 1199324 31497 83%
c - 105.67 188 600 27 2501 236122 17673 26% 72 1199324 31497 83%
c B 108.27 188 497 27 2502 253047 31058 24% 67 1199324 31497 83%
c - 109.09 188 573 28 2502 253587 18652 24% 68 1199324 31497 83%
c ] 109.51 188 768 28 2502 255010 19839 25% 70 1199324 31497 83%
c { 109.51 188 34 28 2502 255010 19839  7% 20 1199324 31497 83%
c - 112.70 188 45 29 6743 271673 18526  8% 23 1199324 31497 83%
c F 115.45 188 46 29 7872 276049 21977  8% 24 1199324 31497 83%
c - 117.64 186 44 30 11352 290383 15140  9% 25 1199324 31497 83%
c B 118.73 186 42 30 13754 300050 19130  9% 25 1199324 31497 83%
c - 120.18 185 50 31 13771 309719 14524  8% 24 1199324 31497 83%
c W 124.63 185 59 31 13815 325051 24488  8% 22 1199324 31497 83%
c - 125.63 186 57 32 13836 329678 17173  8% 22 1199324 31497 83%
c - 129.95 186 50 33 14049 350259 17194  8% 22 1199324 31497 83%
c # 130.02 186 50 33 14049 351054 17571  8% 22 1199324 31497 83%
c - 132.63 186 44 34 14343 371467 16999  7% 22 1199324 31497 83%
c B 133.27 186 43 34 14436 378058 20531  7% 22 1199324 31497 83%
c 
c  seconds    reductions        redundant    irredundant
c           MB      restarts           trail         variables
c            level       conflicts         glue           remaining
c 
c - 138.01 187 47 35 17652 393296 18622  7% 25 1199324 31497 83%
c W 143.14 187 47 35 18779 406060 27253  7% 25 1199324 31497 83%
c - 144.62 186 45 36 18814 415749 19999  7% 25 1199324 31497 83%
c F 146.60 186 42 36 18824 435061 32592  7% 24 1199324 31497 83%
c - 147.64 186 41 37 18830 438826 21047  7% 24 1199324 31497 83%
c - 153.14 186 37 38 18911 462525 21499  7% 24 1199324 31497 83%
c B 153.45 186 37 38 18913 465062 23282  7% 24 1199324 31497 83%
c - 156.42 187 38 39 21239 486848 23194  7% 24 1199324 31497 83%
c W 161.42 187 39 39 21275 496066 30483  7% 24 1199324 31497 83%
c } 163.09 187 40 39 23642 511010 40440  8% 25 1199324 31497 83%
c [ 163.09 187 768 39 23642 511010 40440 25% 70 1199324 31497 83%
c - 163.94 188 784 40 23642 511795 24090 25% 71 1199324 31497 83%
c W 172.86 188 693 40 23642 528070 34926 23% 66 1199324 31497 83%
c - 175.03 188 627 41 23642 537365 24005 22% 64 1199324 31497 83%
c I 179.37 188 492 41 23656 561072 41961 20% 59 1199324 31497 83%
c - 182.38 197 971 42 23656 563559 27204 21% 84 1199324 31497 83%
c - 192.12 204 1089 43 23669 590377 28817 26% 106 1199324 31497 83%
c s 192.30 204 1089 43 23669 590377 27552 26% 106 1199324 31497 83%
c w 194.15 204 1089 43 23669 590377 27549 26% 106 1199324 31497 83%
c B 195.30 204 1044 43 23671 595073 31275 25% 106 1199324 31497 83%
c 
c  seconds     reductions        redundant    irredundant
c           MB       restarts           trail         variables
c             level       conflicts         glue           remaining
c 
c - 201.72 191 841 44 23673 617818 29481 23% 94 1199324 31497 83%
c W 209.15 191 751 44 23679 630075 38516 22% 89 1199324 31497 83%
c - 213.49 194 1111 45 23687 645884 32541 27% 88 1199324 31497 83%
c O 217.89 194 938 45 23695 666078 48291 29% 89 1199324 31497 83%
c - 219.96 194 865 46 23701 674573 30484 28% 86 1199324 31497 83%
c B 227.10 194 661 46 23704 703079 50188 25% 77 1199324 31497 83%
c - 227.96 190 657 47 23704 703886 28456 25% 77 1199324 31497 83%
c - 240.81 201 968 48 23705 733822 33006 30% 89 1199324 31497 83%
c W 250.10 201 984 48 23706 741080 39057 31% 92 1199324 31497 83%
c - 255.23 197 818 49 23706 764384 35104 32% 89 1199324 31497 83%
c I 259.53 197 746 49 23706 780081 45809 33% 82 1199324 31497 83%
c - 266.26 199 1092 50 23706 795573 33067 35% 95 1199324 31497 83%
c B 273.66 199 1139 50 23716 820082 52630 34% 104 1199324 31497 83%
c - 275.54 201 1076 51 23720 827380 34240 33% 100 1199324 31497 83%
c - 283.55 190 795 52 23735 859812 32767 26% 84 1199324 31497 83%
c W 290.06 190 786 52 23735 861083 33628 26% 83 1199324 31497 83%
c - 300.29 199 791 53 23742 892869 35059 29% 96 1199324 31497 83%
c O 302.06 199 725 53 23747 903084 42790 28% 94 1199324 31497 83%
c - 306.35 192 586 54 23757 926547 32924 26% 85 1199324 31497 83%
c B 310.52 192 493 54 23767 946085 47029 24% 79 1199324 31497 83%
c 
c  seconds     reductions        redundant    irredundant
c           MB       restarts           trail         variables
c             level       conflicts         glue           remaining
c 
c - 316.51 196 799 55 23768 960852 36054 27% 88 1199324 31497 83%
c W 328.30 196 680 55 23769 990087 56786 28% 82 1199324 31497 83%
c - 330.73 195 1045 56 23769 995782 35114 30% 86 1199324 31497 83%
c ] 338.28 195 1285 56 23782 1023010 55814 33% 106 1199324 31497 83%
c { 338.28 195 40 56 23782 1023010 55814  8% 25 1199324 31497 83%
c - 339.68 202 45 57 24293 1031331 37230  8% 25 1199324 31497 83%
c s 339.97 202 45 57 24293 1031331 36355  8% 25 1199324 31497 83%
c w 341.43 202 45 57 24293 1031331 36348  8% 25 1199324 31497 83%
c # 342.05 202 48 57 24293 1035088 39266  8% 25 1199324 31497 83%
c - 347.09 189 42 58 24401 1067505 37174  8% 24 1199324 31497 83%
c B 348.60 189 40 58 24412 1081089 46761  8% 24 1199324 31497 83%
c - 351.28 189 39 59 24611 1104303 37563  8% 24 1199324 31497 83%
c W 361.51 189 38 59 24674 1128091 56406  8% 23 1199324 31497 83%
c - 363.26 189 39 60 24817 1141723 38601  8% 23 1199324 31497 83%
c F 368.24 189 41 60 25185 1176092 62161  8% 23 1199324 31497 83%
c - 369.06 189 41 61 25189 1179767 36951  8% 23 1199324 31497 83%
c - 372.99 188 35 62 25316 1218436 32579  7% 22 1199324 31497 83%
c B 373.65 188 35 62 25408 1225093 35916  7% 22 1199324 31497 83%
c - 377.70 191 41 63 33700 1257729 37139  9% 27 1199324 31497 83%
c W 388.51 191 44 63 38134 1275095 50537 10% 28 1199324 31497 83%
c 
c  seconds    reductions         redundant    irredundant
c           MB      restarts            trail         variables
c            level        conflicts         glue           remaining
c 
c - 391.63 192 47 64 43926 1297644 41002 11% 30 1199324 31497 83%
c # 395.40 192 50 64 51216 1326096 63171 12% 32 1199324 31497 83%
c - 397.15 191 48 65 53680 1338184 39008 12% 32 1199324 31497 83%
c B 401.10 191 45 65 54891 1378098 57873 13% 33 1199324 31497 83%
c - 401.65 188 45 66 54892 1379349 29764 13% 33 1199324 31497 83%
c - 407.93 193 60 67 59363 1421137 38443 13% 40 1199324 31497 83%
c W 417.19 193 60 67 59363 1431099 46148 13% 39 1199324 31497 83%
c - 422.06 191 54 68 59414 1463547 41469 13% 38 1199324 31497 83%
c F 425.01 191 51 68 59420 1485101 56450 12% 38 1199324 31497 83%
c - 429.65 191 49 69 59438 1506581 43142 12% 37 1199324 31497 83%
c s 429.80 191 49 69 59438 1506581 41409 12% 37 1199324 31497 83%
c w 431.10 191 49 69 59438 1506581 41391 12% 37 1199324 31497 83%
c B 434.74 191 46 69 59492 1540103 64219 12% 37 1199324 31497 83%
c - 436.22 191 47 70 59579 1550242 42747 12% 36 1199324 31497 83%
c - 440.90 191 58 71 59589 1594523 46196 13% 33 1199324 31497 83%
c W 451.12 191 58 71 59589 1596104 47432 13% 33 1199324 31497 83%
c - 458.17 190 48 72 59591 1639431 46072 12% 31 1199324 31497 83%
c # 459.61 190 46 72 59609 1653105 56789 12% 31 1199324 31497 83%
c - 462.95 190 42 73 59614 1684959 45199 11% 29 1199324 31497 83%
c B 465.42 190 38 73 59614 1711109 64169 10% 28 1199324 31497 83%
c 
c  seconds    reductions         redundant    irredundant
c           MB      restarts            trail         variables
c            level        conflicts         glue           remaining
c 
c - 467.70 189 37 74 59741 1731111 44073 10% 27 1199324 31497 83%
c W 483.87 189 33 74 59812 1770113 67329  9% 26 1199324 31497 83%
c - 485.44 189 35 75 60969 1777888 40235  9% 26 1199324 31497 83%
c - 489.82 189 38 76 61029 1825287 42473  9% 25 1199324 31497 83%
c F 490.27 189 38 76 61033 1830114 45866  9% 25 1199324 31497 83%
c - 494.73 189 34 77 61050 1873311 44600  8% 24 1199324 31497 83%
c B 498.20 189 33 77 61100 1891116 55776  7% 24 1199324 31497 83%
c - 501.33 189 41 78 61170 1921958 41180  7% 23 1199324 31497 83%
c W 517.09 189 46 78 61320 1953117 59404  7% 23 1199324 31497 83%
c - 519.57 188 49 79 62055 1971228 37936  7% 23 1199324 31497 83%
c # 523.94 188 54 79 62378 2016118 62655  7% 22 1199324 31497 83%
c - 525.02 188 54 80 62394 2021125 39278  7% 22 1199324 31497 83%
c } 528.85 188 47 80 62507 2047010 54349  7% 22 1199324 31497 83%
c [ 528.85 188 1285 80 62507 2047010 54349 33% 106 1199324 31497 83%
c - 532.22 201 1023 81 62516 2071647 43964 29% 92 1199324 31497 83%
c s 532.37 201 1023 81 62516 2071647 41464 29% 92 1199324 31497 83%
c w 533.83 201 1023 81 62516 2071647 41461 29% 92 1199324 31497 83%
c I 535.02 201 946 81 62522 2080119 47171 28% 88 1199324 31497 83%
c - 542.45 213 1309 82 62533 2122789 52527 32% 92 1199324 31497 83%
c B 545.17 213 1073 82 62542 2145122 69708 29% 90 1199324 31497 83%
c 
c  seconds     reductions         redundant    irredundant
c           MB       restarts            trail         variables
c             level        conflicts         glue           remaining
c 
c - 550.06 209 825 83 62555 2174554 53331 26% 87 1199324 31497 83%
c W 570.05 209 600 83 62557 2211125 83574 23% 81 1199324 31497 83%
c - 573.15 208 637 84 62558 2226945 56952 23% 80 1199324 31497 83%
c O 587.32 208 4211 84 62558 2278127 101367 40% 124 1199324 31497 83%
c - 588.09 232 4136 85 62558 2279960 60281 40% 122 1199324 31497 83%
c - 598.00 209 2465 86 62559 2333598 57525 28% 90 1199324 31497 83%
c B 599.83 209 2185 86 62559 2346130 67129 26% 85 1199324 31497 83%
c ] 599.96 209 2232 86 62559 2346643 67597 26% 85 1199324 31497 83%
c ? 599.96 209 2232 86 62559 2346643 67597 26% 85 1199324 31497 83%
c 
c --- [ result ] -------------------------------------------------------------
c 
c UNKNOWN
c 
c --- [ run-time profiling ] -------------------------------------------------
c 
c process time taken by individual solving procedures
c (percentage relative to process time for solving)
c 
c       512.15   85.50% search
c       228.67   38.17% stable
c       166.04   27.72% unstable
c       117.42   19.60% walk
c        86.89   14.50% simplify
c        24.56    4.10% probe
c        17.05    2.85% ternary
c        11.15    1.86% elim
c        11.01    1.84% vivify
c         3.06    0.51% subsume
c         0.93    0.15% parse
c         0.01    0.00% lucky
c   =================================
c       599.03   99.85% solve
c 
c last line shows process time for solving
c (percentage relative to total process time)
c 
c --- [ statistics ] ---------------------------------------------------------
c 
c chronological:            376998        16.07 %  of conflicts
c conflicts:               2346643      3917.38    per second
c decisions:               3375586      5635.06    per second
c eliminated:                 4783        12.63 %  of all variables
c fixed:                      1600         4.22 %  of all variables
c learned:                 2324345        99.05 %  per conflict
c learned_lits:          265960103       100.00 %  learned literals
c minimized:                     0         0.00 %  learned literals
c shrunken:              102185497        38.42 %  learned literals
c minishrunken:            8771920         3.30 %  learned literals
c propagations:          627034156         1.05 M  per second
c reduced:                 1592245        67.85 %  per conflict
c rephased:                     68     34509.46    interval
c restarts:                  62559        37.51    interval
c stabilizing:                   6        41.83 %  of conflicts
c subsumed:                 662510         8.46 %  of all clauses
c strengthened:              24722         0.32 %  of all clauses
c vivified:                    135         0.00 %  of all clauses
c walked:                       21    111744.90    interval
c weakened:                 390440         2.42    average size
c 
c seconds are measured in process time for solving
c 
c --- [ resources ] ----------------------------------------------------------
c 
c total process time since initialization:       599.96    seconds
c total real time since initialization:          600.00    seconds
c maximum resident set size of process:          279.70    MB
c 
c --- [ shutting down ] ------------------------------------------------------
c 
c exit 0
